n_machines = 10;
n_resources = 15;
n_jobs = 38;
horizon = 2130;
LB = 252;
n_jobs_per_resource = [4, 3, 4, 1, 2, 4, 1, 3, 1, 3, 1, 3, 1, 3, 4];
duration = [57, 30, 76, 79, 94, 62, 96, 67, 62, 2, 50, 55, 71, 81, 95, 63, 30, 45, 24, 37, 94, 82, 50, 25, 66, 75, 5, 80, 50, 79, 38, 45, 95, 3, 13, 4, 61, 89]